\ Model MPC_copy
\ LP format - for model browsing. Use MPS format to capture full model detail.
Minimize
 
Subject To
 R7: u[0,0] + u[0,2] + u_41[0,0] = 61
 R8: u[0,0] >= 34
 R10: u[0,2] - u_41[0,0] >= 0
Bounds
 u[0,0] free
 u[0,2] free
 u_41[0,0] >= 15
Generals
 u[0,0] u[0,2] u_41[0,0]
End
